14 3323
153
560 459
706 664 314
966 997 788 491
581 598 450 265 400
455 507 506 410 514 168
70 197 547 664 902 522 389
160 311 701 804 990 634 482 154
372 479 927 1070 1261 910 757 406 276
169 316 720 831 1021 665 513 175 32 246
500 496 342 239 513 120 185 448 578 850 607
342 417 525 499 635 284 124 273 358 633 389 261
426 379 211 286 667 281 299 393 542 796 566 162 315